NAME          DCAP_2_4_3_500_SS27
ROWS
 N  OBJ
 L  CON1
 L  CON2
 L  CON3
 L  CON4
 L  CON5
 L  CON6
 L  CON7
 L  CON8
 L  CON9
 L  CON10
 L  CON11
 L  CON12
 E  CON13
 E  CON14
 E  CON15
 E  CON16
 E  CON17
 E  CON18
 E  CON19
 E  CON20
 E  CON21
 E  CON22
 E  CON23
 E  CON24
COLUMNS
    x[1,1]    OBJ       6.180167      CON1      1.000000    
    x[1,1]    CON7      -1.000000     CON8      -1.000000   
    x[1,1]    CON9      -1.000000   
    x[1,2]    OBJ       6.563535      CON2      1.000000    
    x[1,2]    CON8      -1.000000     CON9      -1.000000   
    x[1,3]    OBJ       7.443064      CON3      1.000000    
    x[1,3]    CON9      -1.000000   
    x[2,1]    OBJ       6.732585      CON4      1.000000    
    x[2,1]    CON10     -1.000000     CON11     -1.000000   
    x[2,1]    CON12     -1.000000   
    x[2,2]    OBJ       5.039546      CON5      1.000000    
    x[2,2]    CON11     -1.000000     CON12     -1.000000   
    x[2,3]    OBJ       6.054841      CON6      1.000000    
    x[2,3]    CON12     -1.000000   
    MARKER    'MARKER'                'INTORG'
    u[1,1]    OBJ       48.076654     CON1      -1.000000   
    u[1,2]    OBJ       20.066487     CON2      -1.000000   
    u[1,3]    OBJ       32.230043     CON3      -1.000000   
    u[2,1]    OBJ       49.996186     CON4      -1.000000   
    u[2,2]    OBJ       49.466655     CON5      -1.000000   
    u[2,3]    OBJ       27.484319     CON6      -1.000000   
    y[1,1,1]  OBJ       5.099402      CON7      1.394227    
    y[1,1,1]  CON13     1.000000    
    y[1,1,2]  OBJ       8.663597      CON8      1.464172    
    y[1,1,2]  CON14     1.000000    
    y[1,1,3]  OBJ       5.350776      CON9      0.563377    
    y[1,1,3]  CON15     1.000000    
    y[1,2,1]  OBJ       7.752468      CON7      1.247153    
    y[1,2,1]  CON16     1.000000    
    y[1,2,2]  OBJ       8.147593      CON8      0.875318    
    y[1,2,2]  CON17     1.000000    
    y[1,2,3]  OBJ       7.078263      CON9      0.508040    
    y[1,2,3]  CON18     1.000000    
    y[1,3,1]  OBJ       8.124460      CON7      0.846756    
    y[1,3,1]  CON19     1.000000    
    y[1,3,2]  OBJ       6.217998      CON8      1.180852    
    y[1,3,2]  CON20     1.000000    
    y[1,3,3]  OBJ       6.590769      CON9      0.660463    
    y[1,3,3]  CON21     1.000000    
    y[1,4,1]  OBJ       6.532478      CON7      0.825363    
    y[1,4,1]  CON22     1.000000    
    y[1,4,2]  OBJ       6.853966      CON8      1.176616    
    y[1,4,2]  CON23     1.000000    
    y[1,4,3]  OBJ       5.033130      CON9      0.824659    
    y[1,4,3]  CON24     1.000000    
    y[2,1,1]  OBJ       6.855886      CON10     1.394227    
    y[2,1,1]  CON13     1.000000    
    y[2,1,2]  OBJ       6.611269      CON11     1.464172    
    y[2,1,2]  CON14     1.000000    
    y[2,1,3]  OBJ       5.729326      CON12     0.563377    
    y[2,1,3]  CON15     1.000000    
    y[2,2,1]  OBJ       8.967737      CON10     1.247153    
    y[2,2,1]  CON16     1.000000    
    y[2,2,2]  OBJ       8.146314      CON11     0.875318    
    y[2,2,2]  CON17     1.000000    
    y[2,2,3]  OBJ       6.372506      CON12     0.508040    
    y[2,2,3]  CON18     1.000000    
    y[2,3,1]  OBJ       6.837572      CON10     0.846756    
    y[2,3,1]  CON19     1.000000    
    y[2,3,2]  OBJ       6.811292      CON11     1.180852    
    y[2,3,2]  CON20     1.000000    
    y[2,3,3]  OBJ       5.506169      CON12     0.660463    
    y[2,3,3]  CON21     1.000000    
    y[2,4,1]  OBJ       8.354425      CON10     0.825363    
    y[2,4,1]  CON22     1.000000    
    y[2,4,2]  OBJ       9.318971      CON11     1.176616    
    y[2,4,2]  CON23     1.000000    
    y[2,4,3]  OBJ       5.423141      CON12     0.824659    
    y[2,4,3]  CON24     1.000000    
    z[1,1]    OBJ       800.908604    CON13     1.000000    
    z[1,2]    OBJ       603.532109    CON14     1.000000    
    z[1,3]    OBJ       568.856483    CON15     1.000000    
    z[2,1]    OBJ       672.940174    CON16     1.000000    
    z[2,2]    OBJ       854.851125    CON17     1.000000    
    z[2,3]    OBJ       977.454404    CON18     1.000000    
    z[3,1]    OBJ       772.555004    CON19     1.000000    
    z[3,2]    OBJ       749.689793    CON20     1.000000    
    z[3,3]    OBJ       998.292504    CON21     1.000000    
    z[4,1]    OBJ       579.555523    CON22     1.000000    
    z[4,2]    OBJ       989.468555    CON23     1.000000    
    z[4,3]    OBJ       507.810877    CON24     1.000000    
    MARKER    'MARKER'                 'INTEND'
RHS
    RHS       CON1      -0.000000     CON2      -0.000000   
    RHS       CON3      -0.000000     CON4      -0.000000   
    RHS       CON5      -0.000000     CON6      -0.000000   
    RHS       CON7      -0.000000     CON8      -0.000000   
    RHS       CON9      -0.000000     CON10     -0.000000   
    RHS       CON11     -0.000000     CON12     -0.000000   
    RHS       CON13     1.000000      CON14     1.000000    
    RHS       CON15     1.000000      CON16     1.000000    
    RHS       CON17     1.000000      CON18     1.000000    
    RHS       CON19     1.000000      CON20     1.000000    
    RHS       CON21     1.000000      CON22     1.000000    
    RHS       CON23     1.000000      CON24     1.000000    
BOUNDS
 BV BOUND     u[1,1]  
 BV BOUND     u[1,2]  
 BV BOUND     u[1,3]  
 BV BOUND     u[2,1]  
 BV BOUND     u[2,2]  
 BV BOUND     u[2,3]  
 BV BOUND     y[1,1,1]
 BV BOUND     y[1,1,2]
 BV BOUND     y[1,1,3]
 BV BOUND     y[1,2,1]
 BV BOUND     y[1,2,2]
 BV BOUND     y[1,2,3]
 BV BOUND     y[1,3,1]
 BV BOUND     y[1,3,2]
 BV BOUND     y[1,3,3]
 BV BOUND     y[1,4,1]
 BV BOUND     y[1,4,2]
 BV BOUND     y[1,4,3]
 BV BOUND     y[2,1,1]
 BV BOUND     y[2,1,2]
 BV BOUND     y[2,1,3]
 BV BOUND     y[2,2,1]
 BV BOUND     y[2,2,2]
 BV BOUND     y[2,2,3]
 BV BOUND     y[2,3,1]
 BV BOUND     y[2,3,2]
 BV BOUND     y[2,3,3]
 BV BOUND     y[2,4,1]
 BV BOUND     y[2,4,2]
 BV BOUND     y[2,4,3]
 BV BOUND     z[1,1]  
 BV BOUND     z[1,2]  
 BV BOUND     z[1,3]  
 BV BOUND     z[2,1]  
 BV BOUND     z[2,2]  
 BV BOUND     z[2,3]  
 BV BOUND     z[3,1]  
 BV BOUND     z[3,2]  
 BV BOUND     z[3,3]  
 BV BOUND     z[4,1]  
 BV BOUND     z[4,2]  
 BV BOUND     z[4,3]  
ENDATA
